NAME : in_house_9_7
TYPE : TSP
DIMENSION : 9
EDGE_WEIGHT_TYPE : EXPLICIT
EDGE_WEIGHT_FORMAT : UPPER_ROW
COMMENT : INVERSION_SHIFT=5
EDGE_WEIGHT_SECTION
10
58
8
57
28
42
78
28
73
1
20
40
56
59
23
67
28
22
75
23
37
81
63
66
61
32
14
26
30
14
34
39
75
16
39
9
